c description: Subset cardinality formula for fast_gnp_random_graph(6,8,0.7)
c generator: CNFgen (0.9.0)
c copyright: (C) 2012-2020 Massimo Lauria <massimo.lauria@uniroma1.it>
c url: https://massimolauria.net/cnfgen
c
p cnf 34 166
1 2 3 0
1 2 4 0
1 2 5 0
1 3 4 0
1 3 5 0
1 4 5 0
2 3 4 0
2 3 5 0
2 4 5 0
3 4 5 0
6 7 8 9 0
6 7 8 10 0
6 7 8 11 0
6 7 9 10 0
6 7 9 11 0
6 7 10 11 0
6 8 9 10 0
6 8 9 11 0
6 8 10 11 0
6 9 10 11 0
7 8 9 10 0
7 8 9 11 0
7 8 10 11 0
7 9 10 11 0
8 9 10 11 0
12 13 0
12 14 0
13 14 0
15 16 17 18 0
15 16 17 19 0
15 16 17 20 0
15 16 18 19 0
15 16 18 20 0
15 16 19 20 0
15 17 18 19 0
15 17 18 20 0
15 17 19 20 0
15 18 19 20 0
16 17 18 19 0
16 17 18 20 0
16 17 19 20 0
16 18 19 20 0
17 18 19 20 0
21 22 23 24 0
21 22 23 25 0
21 22 23 26 0
21 22 23 27 0
21 22 24 25 0
21 22 24 26 0
21 22 24 27 0
21 22 25 26 0
21 22 25 27 0
21 22 26 27 0
21 23 24 25 0
21 23 24 26 0
21 23 24 27 0
21 23 25 26 0
21 23 25 27 0
21 23 26 27 0
21 24 25 26 0
21 24 25 27 0
21 24 26 27 0
21 25 26 27 0
22 23 24 25 0
22 23 24 26 0
22 23 24 27 0
22 23 25 26 0
22 23 25 27 0
22 23 26 27 0
22 24 25 26 0
22 24 25 27 0
22 24 26 27 0
22 25 26 27 0
23 24 25 26 0
23 24 25 27 0
23 24 26 27 0
23 25 26 27 0
24 25 26 27 0
28 29 30 31 0
28 29 30 32 0
28 29 30 33 0
28 29 30 34 0
28 29 31 32 0
28 29 31 33 0
28 29 31 34 0
28 29 32 33 0
28 29 32 34 0
28 29 33 34 0
28 30 31 32 0
28 30 31 33 0
28 30 31 34 0
28 30 32 33 0
28 30 32 34 0
28 30 33 34 0
28 31 32 33 0
28 31 32 34 0
28 31 33 34 0
28 32 33 34 0
29 30 31 32 0
29 30 31 33 0
29 30 31 34 0
29 30 32 33 0
29 30 32 34 0
29 30 33 34 0
29 31 32 33 0
29 31 32 34 0
29 31 33 34 0
29 32 33 34 0
30 31 32 33 0
30 31 32 34 0
30 31 33 34 0
30 32 33 34 0
31 32 33 34 0
-1 -6 -15 0
-1 -6 -28 0
-1 -15 -28 0
-6 -15 -28 0
-16 -21 0
-16 -29 0
-21 -29 0
-7 -17 -22 0
-7 -17 -30 0
-7 -22 -30 0
-17 -22 -30 0
-2 -8 -18 0
-2 -8 -23 0
-2 -8 -31 0
-2 -18 -23 0
-2 -18 -31 0
-2 -23 -31 0
-8 -18 -23 0
-8 -18 -31 0
-8 -23 -31 0
-18 -23 -31 0
-3 -12 -19 0
-3 -12 -24 0
-3 -19 -24 0
-12 -19 -24 0
-9 -25 0
-9 -32 0
-25 -32 0
-4 -10 -13 0
-4 -10 -26 0
-4 -10 -33 0
-4 -13 -26 0
-4 -13 -33 0
-4 -26 -33 0
-10 -13 -26 0
-10 -13 -33 0
-10 -26 -33 0
-13 -26 -33 0
-5 -11 -14 -20 0
-5 -11 -14 -27 0
-5 -11 -14 -34 0
-5 -11 -20 -27 0
-5 -11 -20 -34 0
-5 -11 -27 -34 0
-5 -14 -20 -27 0
-5 -14 -20 -34 0
-5 -14 -27 -34 0
-5 -20 -27 -34 0
-11 -14 -20 -27 0
-11 -14 -20 -34 0
-11 -14 -27 -34 0
-11 -20 -27 -34 0
-14 -20 -27 -34 0